sat
(:added-eqs                       13306
 :arith-eq-adapter                1016
 :arith-bound-propagations-lp     2503
 :arith-branch                    79
 :arith-conflicts                 2997
 :arith-cube-calls                30
 :arith-diseq                     9219
 :arith-fixed-eqs                 4645
 :arith-gcd-calls                 431
 :arith-gcd-conflict              1
 :arith-gomory-cuts               39
 :arith-grobner-calls             513
 :arith-grobner-conflicts         110
 :arith-hnf-calls                 1
 :arith-horner-calls              149
 :arith-horner-conflicts          9
 :arith-horner-cross-nested-forms 15843
 :arith-lower                     9782
 :arith-make-feasible             7674
 :arith-max-columns               819
 :arith-max-rows                  475
 :arith-nla-add-bounds            159
 :arith-nla-lemmas                1985
 :arith-nla-propagate-bounds      607
 :arith-nla-propagate-eq          5768
 :arith-nra-calls                 78
 :arith-offset-eqs                2982
 :arith-patches                   430
 :arith-patches-success           311
 :arith-upper                     11714
 :binary-propagations             51388
 :card2bv-rewrites                2
 :cnf-encoding-aux-vars           7
 :conflicts                       610
 :decisions                       95090
 :del-clause                      4615
 :elim-unconstrained              96
 :final-checks                    1131
 :max-memory                      29.45
 :memory                          19.09
 :minimized-lits                  2450
 :mk-bool-var                     8907
 :mk-clause                       6859
 :mk-clause-binary                7954
 :nlsat-conflicts                 7266
 :nlsat-decisions                 103
 :nlsat-propagations              256766
 :nlsat-restarts                  3
 :nlsat-stages                    111104
 :num-allocs                      2265021688
 :num-checks                      1
 :propagations                    90055
 :restarts                        5
 :rlimit-count                    4296033
 :solve-eqs-elim-vars             50
 :solve-eqs-steps                 607
 :time                            2.03
 :total-time                      2.04)
